
;this file is automatically generated: Sun Oct 25 10:43:47 CST 2020

;declarations generated

(declare-fun oclExcludes ( Int Int) Bool)
(declare-fun Cardinality ( Int) Int)
(declare-fun type_f7c5b877_6039_43ab_a4cd_ea7019a13874_Class19 ( Int) Bool)
(declare-fun obj_042fdd79_a135_4f5b_8175_be00d98e0389 ( Int) Int)
(declare-fun oclSelect ( Int Bool) Int)
(declare-fun Enum0 ( Int) Int)
(declare-fun Enum1 ( Int) Int)
(declare-fun container_ ( Int) Int)
(declare-fun oclIncludes ( Int Int) Bool)
(declare-fun ObjAt ( Int Int) Int)

;formula(s) generated
(assert (forall ((p Int)) (=> ( type_f7c5b877_6039_43ab_a4cd_ea7019a13874_Class19 p )  (and (>= ( Enum1 ( obj_042fdd79_a135_4f5b_8175_be00d98e0389 p )  )  0) (<= ( Enum1 ( obj_042fdd79_a135_4f5b_8175_be00d98e0389 p )  )  6)))))
(assert (! (forall ((v Int)) (=> ( type_f7c5b877_6039_43ab_a4cd_ea7019a13874_Class19 v )  (not (= ( Enum1 ( obj_042fdd79_a135_4f5b_8175_be00d98e0389 v )  )  5) ))):named l0))
(assert (exists ((o Int)) ( type_f7c5b877_6039_43ab_a4cd_ea7019a13874_Class19 ( obj_042fdd79_a135_4f5b_8175_be00d98e0389 o )  ) ))

 ;end of formula 